
<<<<<<< HEAD
Gurobi 7.0.2 (win64, Python) logging started 10/01/17 18:31:32
=======
Gurobi 7.0.2 (win64, Python) logging started 09/06/17 18:30:18
>>>>>>> bazan

Parameter OutputFlag unchanged
   Value: 1  Min: 0  Max: 1  Default: 1
Parameter OutputFlag unchanged
   Value: 1  Min: 0  Max: 1  Default: 1
Parameter OutputFlag unchanged
   Value: 1  Min: 0  Max: 1  Default: 1
Parameter OutputFlag unchanged
   Value: 1  Min: 0  Max: 1  Default: 1
Parameter OutputFlag unchanged
   Value: 1  Min: 0  Max: 1  Default: 1
Parameter OutputFlag unchanged
   Value: 1  Min: 0  Max: 1  Default: 1
Parameter OutputFlag unchanged
   Value: 1  Min: 0  Max: 1  Default: 1

Gurobi 7.5.2 (win64, Python) logging started 01/16/18 15:49:52

Academic license - for non-commercial use only
Parameter OutputFlag unchanged
   Value: 1  Min: 0  Max: 1  Default: 1

Gurobi 7.5.2 (win64, Python) logging started 01/19/18 15:09:49

Academic license - for non-commercial use only
Parameter OutputFlag unchanged
   Value: 1  Min: 0  Max: 1  Default: 1
Parameter OutputFlag unchanged
   Value: 1  Min: 0  Max: 1  Default: 1
Warning for adding constraints: zero or small (< 1e-13) coefficients, ignored
Parameter OutputFlag unchanged
   Value: 1  Min: 0  Max: 1  Default: 1
Warning for adding constraints: zero or small (< 1e-13) coefficients, ignored
Parameter OutputFlag unchanged
   Value: 1  Min: 0  Max: 1  Default: 1
Warning for adding constraints: zero or small (< 1e-13) coefficients, ignored
Parameter OutputFlag unchanged
   Value: 1  Min: 0  Max: 1  Default: 1
Warning for adding constraints: zero or small (< 1e-13) coefficients, ignored
Parameter OutputFlag unchanged
   Value: 1  Min: 0  Max: 1  Default: 1
Warning for adding constraints: zero or small (< 1e-13) coefficients, ignored
Parameter OutputFlag unchanged
   Value: 1  Min: 0  Max: 1  Default: 1
Warning for adding constraints: zero or small (< 1e-13) coefficients, ignored
Parameter OutputFlag unchanged
   Value: 1  Min: 0  Max: 1  Default: 1
Warning for adding constraints: zero or small (< 1e-13) coefficients, ignored
Parameter OutputFlag unchanged
   Value: 1  Min: 0  Max: 1  Default: 1
Warning for adding constraints: zero or small (< 1e-13) coefficients, ignored
Parameter OutputFlag unchanged
   Value: 1  Min: 0  Max: 1  Default: 1
Warning for adding constraints: zero or small (< 1e-13) coefficients, ignored
Parameter OutputFlag unchanged
   Value: 1  Min: 0  Max: 1  Default: 1

Gurobi 7.5.2 (win64, Python) logging started 01/23/18 12:52:33

Academic license - for non-commercial use only

Gurobi 7.5.2 (win64, Python) logging started 01/23/18 12:53:17

Academic license - for non-commercial use only
Warning for adding constraints: zero or small (< 1e-13) coefficients, ignored
Warning for adding constraints: zero or small (< 1e-13) coefficients, ignored
Parameter OutputFlag unchanged
   Value: 1  Min: 0  Max: 1  Default: 1
Parameter OutputFlag unchanged
   Value: 1  Min: 0  Max: 1  Default: 1
Warning for adding constraints: zero or small (< 1e-13) coefficients, ignored
Parameter OutputFlag unchanged
   Value: 1  Min: 0  Max: 1  Default: 1
Warning for adding constraints: zero or small (< 1e-13) coefficients, ignored
Parameter OutputFlag unchanged
   Value: 1  Min: 0  Max: 1  Default: 1
Warning for adding constraints: zero or small (< 1e-13) coefficients, ignored
Parameter OutputFlag unchanged
   Value: 1  Min: 0  Max: 1  Default: 1
Warning for adding constraints: zero or small (< 1e-13) coefficients, ignored
Parameter OutputFlag unchanged
   Value: 1  Min: 0  Max: 1  Default: 1
